50	1
0 52
0 53
0 53
0 51
0 54
0 52
0 45
0 51
0 52
0 50
0 59
0 50
0 37
0 44
0 49
0 48
0 51
0 37
0 52
0 53
0 46
0 43
0 50
0 52
0 51
0 44
0 57
0 51
0 44
0 54
0 63
0 51
0 41
0 53
0 60
0 58
0 52
0 45
0 51
0 55
0 49
0 51
0 49
0 60
0 56
0 46
0 52
0 53
0 57
0 51
